50
10090

72 795
374 51
102 611
422 469
755 353
255 262
202 621
665 232
271 570
727 688
925 553
838 740
624 437
67 406
825 474
841 765
969 312
240 524
368 697
329 27
713 139
526 542
400 634
673 672
683 585
585 138
437 436
307 826
62 812
579 243
726 140
728 640
117 737
660 221
31 559
599 887
143 104
787 117
402 76
317 612
6 595
247 232
116 626
241 673
123 788
709 476
299 469
115 252
383 439
614 518
